param set_len = 26;
param target := 207504177;
param values := [1] 14867242 [2] 18775130 [3] 13013157 [4] 12137767 [5] 13899578 [6] 29006386 [7] 2887745 [8] 18902323 [9] 14182158 [10] 33355003 [11] 549457 [12] 26498399 [13] 19593534 [14] 30226933 [15] 31461985 [16] 6125111 [17] 7023074 [18] 24605009 [19] 1272680 [20] 1394998 [21] 29706790 [22] 1124894 [23] 17695935 [24] 16815588 [25] 13414004 [26] 18564737 ;
